
Gurobi 13.0.0 (linux64) logging started Sun Jan 18 04:49:30 2026

Set parameter LogFile to value "../experiments/network-n_60_s_1_rp_0-app_set-id_50_21_apps/submip_40_epr1_model_gurobi.log"
Set parameter TimeLimit to value 7.8330098549398826e+02
Gurobi Optimizer version 13.0.0 build v13.0.0rc1 (linux64 - "Ubuntu 24.04.3 LTS")

CPU model: Intel(R) Core(TM) Ultra 7 165H, instruction set [SSE2|AVX|AVX2]
Thread count: 22 physical cores, 22 logical processors, using up to 22 threads

Non-default parameters:
TimeLimit  7.8330098549398826e+02
LogToConsole  0

Academic license 2539022 - for non-commercial use only - registered to al___@studenti.unimi.it
Optimize a model with 45861 rows, 8160 columns and 103053 nonzeros (Min)
Model fingerprint: 0x6a8fd78a
Model has 8160 linear objective coefficients
Model has 206 quadratic constraints
Variable types: 0 continuous, 8160 integer (8160 binary)
Coefficient statistics:
  Matrix range     [1e+00, 8e+02]
  QMatrix range    [5e+01, 2e+02]
  Objective range  [1e+01, 2e+02]
  Bounds range     [1e+00, 1e+00]
  RHS range        [1e+00, 1e+09]
  QRHS range       [1e+02, 6e+02]
Presolve removed 45411 rows and 6847 columns
Presolve time: 0.09s
Presolved: 8939 rows, 9609 columns, 56552 nonzeros
Variable types: 0 continuous, 9609 integer (9609 binary)

Root relaxation: objective 5.380110e+03, 2593 iterations, 0.19 seconds (0.27 work units)

    Nodes    |    Current Node    |     Objective Bounds      |     Work
 Expl Unexpl |  Obj  Depth IntInf | Incumbent    BestBd   Gap | It/Node Time

     0     0 5380.10951    0  158          - 5380.10951      -     -    0s
     0     0 5659.82452    0  210          - 5659.82452      -     -    1s
     0     0 5659.87811    0  206          - 5659.87811      -     -    1s
     0     0 5697.74420    0  211          - 5697.74420      -     -    1s
     0     0 5707.27153    0  230          - 5707.27153      -     -    1s
     0     0 5708.86573    0  225          - 5708.86573      -     -    1s
     0     0 5839.42178    0  233          - 5839.42178      -     -    2s
     0     0 5913.57974    0  229          - 5913.57974      -     -    2s
     0     0 5957.39552    0  235          - 5957.39552      -     -    2s
     0     0 5958.29507    0  242          - 5958.29507      -     -    2s
     0     0 infeasible    0               - infeasible      -     -    2s

Cutting planes:
  Gomory: 3
  Cover: 79
  Implied bound: 2
  Clique: 49
  MIR: 118
  Knapsack: 19
  StrongCG: 54
  GUB cover: 7
  Zero half: 21
  RLT: 138
  Relax-and-lift: 17
  BQP: 50

Explored 1 nodes (7098 simplex iterations) in 3.13 seconds (2.77 work units)
Thread count was 22 (of 22 available processors)

Solution count 0

Model is infeasible
Best objective -, best bound -, gap -

User-callback calls 1024, time in user-callback 0.00 sec
